log                 lammps.log
# Initialization
units				real
boundary			p p p
atom_style			full

# Force Fields
neighbor			2.0 bin
neigh_modify		delay 0 every 1 check yes
special_bonds		lj/coul 0.0 0.0 0.5 
bond_style			harmonic 
angle_style			harmonic
dihedral_style		fourier
improper_style		cvff
pair_style			lj/cut/coul/long 12.0
pair_modify         mix geometric
kspace_style		pppm 1.0e-4

read_data			../data.mixture

thermo				1
thermo_style		custom step etotal pe ebond eangle edihed eimp evdwl ecoul elong press fmax fnorm
min_style			sd
minimize			1e-6 1000 10 10000
min_style			cg
minimize			1e-6 100 99990 990000
#unfix 				1
write_restart		restart.emin.restart
write_data 		    data.emin

write_dump			all custom dump.emin id type element mol x y z mass q 